c width = 4, time = 0.081140
s td 14 5 18
b 1 1 4 8 16 18
b 2 1 4 14 16 18
b 3 1 2 4 14
b 4 1 11 14 16 18
b 5 11 13 14 16 18
b 6 11 12 13 18
b 7 11 14 16 17 18
b 8 11 14 15 17
b 9 1 4 8 10 16
b 10 1 4 7 8 10
b 11 4 7 8 9 10
b 12 3 4 7 9
b 13 4 6 7 8 10
b 14 4 5 6 10
2 3
5 6
4 5
7 8
4 7
2 4
1 2
11 12
10 11
13 14
10 13
9 10
1 9
